; benchmark generated from python API
(set-info :status unknown)
(declare-fun syscall_stub_newfstatat_83_64 () (_ BitVec 64))
(declare-fun mem_c0000f45_79_992 () (_ BitVec 992))
(declare-fun mem_c0001010_98_32 () (_ BitVec 32))
(declare-fun mem_ffffffffdfffffff_179_8 () (_ BitVec 8))
(declare-fun mem_ffffffffe0000000_1127_128 () (_ BitVec 128))
(assert
 (let ((?x47 ((_ extract 31 0) syscall_stub_newfstatat_83_64)))
 (let (($x52 (bvule ?x47 (_ bv4294963200 32))))
 (not $x52))))
(assert
 (let ((?x3699 ((_ extract 891 891) mem_c0000f45_79_992)))
 (let (($x4297 (= (_ bv0 1) ?x3699)))
 (not $x4297))))
(assert
 (let ((?x2189 ((_ extract 900 900) mem_c0000f45_79_992)))
 (= (_ bv0 1) ?x2189)))
(assert
 (let ((?x644 ((_ extract 647 640) mem_c0000f45_79_992)))
 (let ((?x3676 ((_ extract 639 632) mem_c0000f45_79_992)))
 (let ((?x4549 ((_ extract 631 624) mem_c0000f45_79_992)))
 (let ((?x636 ((_ extract 623 616) mem_c0000f45_79_992)))
 (let ((?x672 ((_ extract 615 608) mem_c0000f45_79_992)))
 (let ((?x784 ((_ extract 607 600) mem_c0000f45_79_992)))
 (let ((?x18745 (concat (concat ((_ extract 591 584) mem_c0000f45_79_992) ((_ extract 599 592) mem_c0000f45_79_992)) ?x784)))
 (let ((?x23636 (concat (concat (concat (concat (concat ?x18745 ?x672) ?x636) ?x4549) ?x3676) ?x644)))
 (let ((?x3977 ((_ extract 583 576) mem_c0000f45_79_992)))
 (let ((?x935 ((_ extract 575 568) mem_c0000f45_79_992)))
 (let ((?x4611 ((_ extract 567 560) mem_c0000f45_79_992)))
 (let ((?x3400 ((_ extract 559 552) mem_c0000f45_79_992)))
 (let ((?x3784 ((_ extract 551 544) mem_c0000f45_79_992)))
 (let ((?x3913 ((_ extract 543 536) mem_c0000f45_79_992)))
 (let ((?x12701 (concat (concat ((_ extract 527 520) mem_c0000f45_79_992) ((_ extract 535 528) mem_c0000f45_79_992)) ?x3913)))
 (let ((?x13258 (concat ?x12701 ?x3784)))
 (let ((?x13066 (concat (concat (concat (concat ?x13258 ?x3400) ?x4611) ?x935) ?x3977)))
 (bvule ?x13066 ?x23636)))))))))))))))))))
(assert
 (let ((?x8705 ((_ extract 888 888) mem_c0000f45_79_992)))
 (let (($x9102 (= (_ bv0 1) ?x8705)))
 (not $x9102))))
(assert
 (let ((?x3977 ((_ extract 583 576) mem_c0000f45_79_992)))
 (let ((?x935 ((_ extract 575 568) mem_c0000f45_79_992)))
 (let ((?x4611 ((_ extract 567 560) mem_c0000f45_79_992)))
 (let ((?x3400 ((_ extract 559 552) mem_c0000f45_79_992)))
 (let ((?x3784 ((_ extract 551 544) mem_c0000f45_79_992)))
 (let ((?x3913 ((_ extract 543 536) mem_c0000f45_79_992)))
 (let ((?x12701 (concat (concat ((_ extract 527 520) mem_c0000f45_79_992) ((_ extract 535 528) mem_c0000f45_79_992)) ?x3913)))
 (let ((?x13258 (concat ?x12701 ?x3784)))
 (let ((?x13066 (concat (concat (concat (concat ?x13258 ?x3400) ?x4611) ?x935) ?x3977)))
 (let ((?x2427 ((_ extract 775 768) mem_c0000f45_79_992)))
 (let ((?x2419 ((_ extract 767 760) mem_c0000f45_79_992)))
 (let ((?x2429 ((_ extract 759 752) mem_c0000f45_79_992)))
 (let ((?x2417 ((_ extract 751 744) mem_c0000f45_79_992)))
 (let ((?x2410 ((_ extract 743 736) mem_c0000f45_79_992)))
 (let ((?x2411 ((_ extract 735 728) mem_c0000f45_79_992)))
 (let ((?x4124 (concat (concat ((_ extract 719 712) mem_c0000f45_79_992) ((_ extract 727 720) mem_c0000f45_79_992)) ?x2411)))
 (let ((?x4642 (concat ?x4124 ?x2410)))
 (let ((?x3823 (concat (concat (concat (concat ?x4642 ?x2417) ?x2429) ?x2419) ?x2427)))
 (bvule ?x3823 ?x13066))))))))))))))))))))
(assert
 (let ((?x15059 ((_ extract 199 192) mem_c0000f45_79_992)))
 (let ((?x15057 ((_ extract 191 184) mem_c0000f45_79_992)))
 (let ((?x15055 ((_ extract 183 176) mem_c0000f45_79_992)))
 (let ((?x15053 ((_ extract 175 168) mem_c0000f45_79_992)))
 (let ((?x15049 ((_ extract 167 160) mem_c0000f45_79_992)))
 (let ((?x15050 ((_ extract 159 152) mem_c0000f45_79_992)))
 (let ((?x21207 (concat (concat ((_ extract 143 136) mem_c0000f45_79_992) ((_ extract 151 144) mem_c0000f45_79_992)) ?x15050)))
 (let ((?x20542 (concat (concat (concat (concat (concat ?x21207 ?x15049) ?x15053) ?x15055) ?x15057) ?x15059)))
 (let (($x122622 (bvule ?x20542 (_ bv18446744073172680703 64))))
 (not $x122622)))))))))))
(assert
 (let ((?x14887 ((_ extract 327 320) mem_c0000f45_79_992)))
 (= (_ bv255 8) ?x14887)))
(assert
 (let ((?x14869 ((_ extract 319 312) mem_c0000f45_79_992)))
 (= (_ bv255 8) ?x14869)))
(assert
 (let ((?x14893 ((_ extract 311 304) mem_c0000f45_79_992)))
 (= (_ bv255 8) ?x14893)))
(assert
 (let ((?x14875 ((_ extract 303 296) mem_c0000f45_79_992)))
 (= (_ bv223 8) ?x14875)))
(assert
 (let ((?x14872 ((_ extract 295 288) mem_c0000f45_79_992)))
 (= (_ bv255 8) ?x14872)))
(assert
 (let ((?x14857 ((_ extract 287 280) mem_c0000f45_79_992)))
 (= (_ bv255 8) ?x14857)))
(assert
 (let ((?x14868 ((_ extract 279 272) mem_c0000f45_79_992)))
 (= (_ bv255 8) ?x14868)))
(assert
 (let ((?x14951 ((_ extract 271 264) mem_c0000f45_79_992)))
 (= (_ bv255 8) ?x14951)))
(assert
 (let ((?x2357 ((_ extract 815 808) mem_c0000f45_79_992)))
 (let ((?x2417 ((_ extract 751 744) mem_c0000f45_79_992)))
 (let (($x1690 (= ?x2417 ?x2357)))
 (let (($x3670 (not $x1690)))
 (let ((?x2362 ((_ extract 807 800) mem_c0000f45_79_992)))
 (let ((?x2410 ((_ extract 743 736) mem_c0000f45_79_992)))
 (let (($x1703 (= ?x2410 ?x2362)))
 (let (($x3664 (not $x1703)))
 (let ((?x2345 ((_ extract 783 776) mem_c0000f45_79_992)))
 (let ((?x2400 ((_ extract 719 712) mem_c0000f45_79_992)))
 (let (($x1701 (= ?x2400 ?x2345)))
 (let (($x3671 (not $x1701)))
 (let ((?x2363 ((_ extract 799 792) mem_c0000f45_79_992)))
 (let ((?x2411 ((_ extract 735 728) mem_c0000f45_79_992)))
 (let (($x1704 (= ?x2411 ?x2363)))
 (let (($x3672 (not $x1704)))
 (let ((?x2346 ((_ extract 791 784) mem_c0000f45_79_992)))
 (let ((?x2401 ((_ extract 727 720) mem_c0000f45_79_992)))
 (let (($x1693 (= ?x2401 ?x2346)))
 (let (($x4136 (not $x1693)))
 (let ((?x2364 ((_ extract 831 824) mem_c0000f45_79_992)))
 (let ((?x2419 ((_ extract 767 760) mem_c0000f45_79_992)))
 (let (($x1155 (= ?x2419 ?x2364)))
 (let (($x4137 (not $x1155)))
 (let ((?x2374 ((_ extract 839 832) mem_c0000f45_79_992)))
 (let ((?x2427 ((_ extract 775 768) mem_c0000f45_79_992)))
 (let (($x1152 (= ?x2427 ?x2374)))
 (let (($x4139 (not $x1152)))
 (let ((?x2349 ((_ extract 823 816) mem_c0000f45_79_992)))
 (let ((?x2429 ((_ extract 759 752) mem_c0000f45_79_992)))
 (let (($x1714 (= ?x2429 ?x2349)))
 (let (($x4539 (not $x1714)))
 (let (($x6038 (or $x4539 $x4139 $x4137 $x4136 $x3672 $x3671 $x3664 $x3670)))
 (let (($x9215 (not $x6038)))
 (let ((?x4533 (concat (concat (concat (concat (concat ?x2345 ?x2346) ?x2363) ?x2362) ?x2357) ?x2349)))
 (let ((?x4215 (concat ?x4533 ?x2364)))
 (let ((?x3812 (concat ?x4215 ?x2374)))
 (let ((?x3646 (bvmul (_ bv18446744073709551615 64) ?x3812)))
 (let ((?x3809 (concat (concat (concat (concat (concat ?x2400 ?x2401) ?x2411) ?x2410) ?x2417) ?x2429)))
 (let ((?x3823 (concat (concat ?x3809 ?x2419) ?x2427)))
 (let ((?x3827 (bvadd ?x3823 ?x3646)))
 (let ((?x2482 ((_ extract 63 63) ?x3827)))
 (let (($x2285 (= (_ bv1 1) ?x2482)))
 (or $x2285 $x9215)))))))))))))))))))))))))))))))))))))))))))))
(assert
 (let ((?x15050 ((_ extract 159 152) mem_c0000f45_79_992)))
 (let (($x587654 (= (_ bv255 8) ?x15050)))
 (let (($x587939 (not $x587654)))
 (let ((?x15057 ((_ extract 191 184) mem_c0000f45_79_992)))
 (let (($x61793 (= (_ bv0 8) ?x15057)))
 (let (($x584639 (not $x61793)))
 (let ((?x15059 ((_ extract 199 192) mem_c0000f45_79_992)))
 (let (($x58109 (= (_ bv0 8) ?x15059)))
 (let (($x583666 (not $x58109)))
 (let ((?x15055 ((_ extract 183 176) mem_c0000f45_79_992)))
 (let (($x57918 (= (_ bv0 8) ?x15055)))
 (let (($x590036 (not $x57918)))
 (let ((?x15047 ((_ extract 143 136) mem_c0000f45_79_992)))
 (let (($x39845 (= (_ bv255 8) ?x15047)))
 (let (($x41002 (not $x39845)))
 (let ((?x15048 ((_ extract 151 144) mem_c0000f45_79_992)))
 (let (($x41249 (= (_ bv255 8) ?x15048)))
 (let (($x590847 (not $x41249)))
 (let ((?x79480 ((_ extract 312 312) mem_c0000f45_79_992)))
 (let ((?x185464 (concat ?x79480 (_ bv255 8))))
 (let ((?x189320 (bvmul (_ bv511 9) ?x185464)))
 (let ((?x79635 ((_ extract 184 184) mem_c0000f45_79_992)))
 (let ((?x79447 (concat ?x79635 ?x15059)))
 (let ((?x195249 (bvadd (_ bv511 9) ?x79447)))
 (let ((?x3227836 (bvadd ?x195249 ?x189320)))
 (let (($x3230513 (bvule ?x3227836 (_ bv398 9))))
 (let (($x3229145 (not $x3230513)))
 (let ((?x15049 ((_ extract 167 160) mem_c0000f45_79_992)))
 (let (($x3226103 (= (_ bv255 8) ?x15049)))
 (let (($x3426948 (not $x3226103)))
 (let ((?x15053 ((_ extract 175 168) mem_c0000f45_79_992)))
 (let (($x385218 (= (_ bv224 8) ?x15053)))
 (let (($x3394082 (not $x385218)))
 (let ((?x20697 (concat (concat (concat (concat (concat ?x15047 ?x15048) ?x15050) ?x15049) ?x15053) ?x15055)))
 (let ((?x20542 (concat (concat ?x20697 ?x15057) ?x15059)))
 (let ((?x122426 (bvadd (_ bv536870912 64) ?x20542)))
 (let ((?x122660 ((_ extract 63 9) ?x122426)))
 (let (($x2668636 (= (_ bv0 55) ?x122660)))
 (let (($x3406876 (not $x2668636)))
 (or $x3406876 $x3394082 $x3426948 $x3229145 $x590847 $x41002 $x590036 $x583666 $x584639 $x587939)))))))))))))))))))))))))))))))))))))))))
(assert
 (= (_ bv4294967295 32) mem_c0001010_98_32))
(assert
 (let (($x122659 (= (_ bv10 8) mem_ffffffffdfffffff_179_8)))
 (not $x122659)))
(assert
 (let ((?x14887 ((_ extract 327 320) mem_c0000f45_79_992)))
 (let ((?x14869 ((_ extract 319 312) mem_c0000f45_79_992)))
 (let ((?x14893 ((_ extract 311 304) mem_c0000f45_79_992)))
 (let ((?x14875 ((_ extract 303 296) mem_c0000f45_79_992)))
 (let ((?x14872 ((_ extract 295 288) mem_c0000f45_79_992)))
 (let ((?x14857 ((_ extract 287 280) mem_c0000f45_79_992)))
 (let ((?x15107 (concat (concat ((_ extract 271 264) mem_c0000f45_79_992) ((_ extract 279 272) mem_c0000f45_79_992)) ?x14857)))
 (let ((?x15071 (concat (concat (concat (concat (concat ?x15107 ?x14872) ?x14875) ?x14893) ?x14869) ?x14887)))
 (let ((?x55842 (bvadd (_ bv1 64) ?x15071)))
 (= (_ bv18446744073172680704 64) ?x55842)))))))))))
(assert
 (let ((?x3401668 ((_ extract 7 0) mem_ffffffffe0000000_1127_128)))
 (let (($x3403151 (= (_ bv10 8) ?x3401668)))
 (let ((?x3218425 (ite $x3403151 (_ bv1 1) (_ bv0 1))))
 (let ((?x3397855 ((_ extract 15 8) mem_ffffffffe0000000_1127_128)))
 (let (($x3401631 (= (_ bv10 8) ?x3397855)))
 (let ((?x3219484 (ite $x3401631 (_ bv1 1) (_ bv0 1))))
 (let ((?x3402157 ((_ extract 23 16) mem_ffffffffe0000000_1127_128)))
 (let (($x3402365 (= (_ bv10 8) ?x3402157)))
 (let ((?x3219423 (ite $x3402365 (_ bv1 1) (_ bv0 1))))
 (let ((?x3392362 ((_ extract 31 24) mem_ffffffffe0000000_1127_128)))
 (let (($x3397868 (= (_ bv10 8) ?x3392362)))
 (let ((?x3218036 (ite $x3397868 (_ bv1 1) (_ bv0 1))))
 (let ((?x3388044 ((_ extract 39 32) mem_ffffffffe0000000_1127_128)))
 (let (($x3396715 (= (_ bv10 8) ?x3388044)))
 (let ((?x3219832 (ite $x3396715 (_ bv1 1) (_ bv0 1))))
 (let ((?x3404952 ((_ extract 47 40) mem_ffffffffe0000000_1127_128)))
 (let (($x3404903 (= (_ bv10 8) ?x3404952)))
 (let ((?x3219127 (ite $x3404903 (_ bv1 1) (_ bv0 1))))
 (let ((?x3400370 ((_ extract 55 48) mem_ffffffffe0000000_1127_128)))
 (let (($x3408806 (= (_ bv10 8) ?x3400370)))
 (let ((?x3218353 (ite $x3408806 (_ bv1 1) (_ bv0 1))))
 (let ((?x3396024 ((_ extract 63 56) mem_ffffffffe0000000_1127_128)))
 (let (($x3391466 (= (_ bv10 8) ?x3396024)))
 (let ((?x3217927 (ite $x3391466 (_ bv1 1) (_ bv0 1))))
 (let ((?x3406350 ((_ extract 71 64) mem_ffffffffe0000000_1127_128)))
 (let (($x3408414 (= (_ bv10 8) ?x3406350)))
 (let ((?x3218829 (ite $x3408414 (_ bv1 1) (_ bv0 1))))
 (let ((?x3408369 ((_ extract 79 72) mem_ffffffffe0000000_1127_128)))
 (let (($x3398897 (= (_ bv10 8) ?x3408369)))
 (let ((?x3219276 (ite $x3398897 (_ bv1 1) (_ bv0 1))))
 (let ((?x3399667 ((_ extract 87 80) mem_ffffffffe0000000_1127_128)))
 (let (($x3403104 (= (_ bv10 8) ?x3399667)))
 (let ((?x2272761 (ite $x3403104 (_ bv1 1) (_ bv0 1))))
 (let ((?x3406837 ((_ extract 95 88) mem_ffffffffe0000000_1127_128)))
 (let (($x3407348 (= (_ bv10 8) ?x3406837)))
 (let ((?x1603293 (ite $x3407348 (_ bv1 1) (_ bv0 1))))
 (let ((?x3392470 ((_ extract 103 96) mem_ffffffffe0000000_1127_128)))
 (let (($x3407383 (= (_ bv10 8) ?x3392470)))
 (let ((?x2430529 (ite $x3407383 (_ bv1 1) (_ bv0 1))))
 (let ((?x3399569 ((_ extract 111 104) mem_ffffffffe0000000_1127_128)))
 (let (($x3401762 (= (_ bv10 8) ?x3399569)))
 (let ((?x2264668 (ite $x3401762 (_ bv1 1) (_ bv0 1))))
 (let ((?x3426747 ((_ extract 119 112) mem_ffffffffe0000000_1127_128)))
 (let (($x3388144 (= (_ bv10 8) ?x3426747)))
 (let ((?x3218679 (ite $x3388144 (_ bv1 1) (_ bv0 1))))
 (let ((?x3402085 ((_ extract 127 120) mem_ffffffffe0000000_1127_128)))
 (let (($x3410949 (= (_ bv10 8) ?x3402085)))
 (let ((?x3219821 (ite $x3410949 (_ bv1 1) (_ bv0 1))))
 (let ((?x2426126 (concat (concat (concat (concat (concat ?x3219821 ?x3218679) ?x2264668) ?x2430529) ?x1603293) ?x2272761)))
 (let ((?x3392056 (concat (concat (concat (concat (concat ?x2426126 ?x3219276) ?x3218829) ?x3217927) ?x3218353) ?x3219127)))
 (let ((?x1814879 (concat (concat (concat (concat (concat ?x3392056 ?x3219832) ?x3218036) ?x3219423) ?x3219484) ?x3218425)))
 (and (distinct (_ bv0 16) ?x1814879) true)))))))))))))))))))))))))))))))))))))))))))))))))))))
(minimize mem_c0000f45_79_992)
(minimize mem_ffffffffe0000000_1127_128)
(minimize mem_c0001010_98_32)
(maximize mem_c0001010_98_32)
(maximize mem_ffffffffe0000000_1127_128)
(minimize mem_ffffffffdfffffff_179_8)
(maximize mem_c0000f45_79_992)
(maximize syscall_stub_newfstatat_83_64)
(minimize syscall_stub_newfstatat_83_64)
(maximize mem_ffffffffdfffffff_179_8)
(check-sat)
(get-objectives)
